\* FOOD_MANUFACTURE_1 *\
Maximize
OBJ: - 130 OIL1_BUY_MONTH1 - 110 OIL1_BUY_MONTH2 - 130 OIL1_BUY_MONTH3
 - 120 OIL1_BUY_MONTH4 - 150 OIL1_BUY_MONTH5 - 140 OIL1_BUY_MONTH6
 - 5 OIL1_STORE_MONTH1 - 5 OIL1_STORE_MONTH2 - 5 OIL1_STORE_MONTH3
 - 5 OIL1_STORE_MONTH4 - 5 OIL1_STORE_MONTH5 + 150 OIL1_USE_MONTH1
 + 150 OIL1_USE_MONTH2 + 150 OIL1_USE_MONTH3 + 150 OIL1_USE_MONTH4
 + 150 OIL1_USE_MONTH5 + 150 OIL1_USE_MONTH6 - 110 OIL2_BUY_MONTH1
 - 90 OIL2_BUY_MONTH2 - 100 OIL2_BUY_MONTH3 - 120 OIL2_BUY_MONTH4
 - 110 OIL2_BUY_MONTH5 - 80 OIL2_BUY_MONTH6 - 5 OIL2_STORE_MONTH1
 - 5 OIL2_STORE_MONTH2 - 5 OIL2_STORE_MONTH3 - 5 OIL2_STORE_MONTH4
 - 5 OIL2_STORE_MONTH5 + 150 OIL2_USE_MONTH1 + 150 OIL2_USE_MONTH2
 + 150 OIL2_USE_MONTH3 + 150 OIL2_USE_MONTH4 + 150 OIL2_USE_MONTH5
 + 150 OIL2_USE_MONTH6 - 115 OIL3_BUY_MONTH1 - 115 OIL3_BUY_MONTH2
 - 95 OIL3_BUY_MONTH3 - 125 OIL3_BUY_MONTH4 - 105 OIL3_BUY_MONTH5
 - 135 OIL3_BUY_MONTH6 - 5 OIL3_STORE_MONTH1 - 5 OIL3_STORE_MONTH2
 - 5 OIL3_STORE_MONTH3 - 5 OIL3_STORE_MONTH4 - 5 OIL3_STORE_MONTH5
 + 150 OIL3_USE_MONTH1 + 150 OIL3_USE_MONTH2 + 150 OIL3_USE_MONTH3
 + 150 OIL3_USE_MONTH4 + 150 OIL3_USE_MONTH5 + 150 OIL3_USE_MONTH6
 - 110 VEG1_BUY_MONTH1 - 130 VEG1_BUY_MONTH2 - 110 VEG1_BUY_MONTH3
 - 120 VEG1_BUY_MONTH4 - 100 VEG1_BUY_MONTH5 - 90 VEG1_BUY_MONTH6
 - 5 VEG1_STORE_MONTH1 - 5 VEG1_STORE_MONTH2 - 5 VEG1_STORE_MONTH3
 - 5 VEG1_STORE_MONTH4 - 5 VEG1_STORE_MONTH5 + 150 VEG1_USE_MONTH1
 + 150 VEG1_USE_MONTH2 + 150 VEG1_USE_MONTH3 + 150 VEG1_USE_MONTH4
 + 150 VEG1_USE_MONTH5 + 150 VEG1_USE_MONTH6 - 120 VEG2_BUY_MONTH1
 - 130 VEG2_BUY_MONTH2 - 140 VEG2_BUY_MONTH3 - 110 VEG2_BUY_MONTH4
 - 120 VEG2_BUY_MONTH5 - 140 VEG2_BUY_MONTH6 - 5 VEG2_STORE_MONTH1
 - 5 VEG2_STORE_MONTH2 - 5 VEG2_STORE_MONTH3 - 5 VEG2_STORE_MONTH4
 - 5 VEG2_STORE_MONTH5 + 150 VEG2_USE_MONTH1 + 150 VEG2_USE_MONTH2
 + 150 VEG2_USE_MONTH3 + 150 VEG2_USE_MONTH4 + 150 VEG2_USE_MONTH5
 + 150 VEG2_USE_MONTH6
Subject To
BALANCE_OIL1_MONTH1: OIL1_BUY_MONTH1 - OIL1_STORE_MONTH1 - OIL1_USE_MONTH1
 = -500
BALANCE_OIL1_MONTH2: OIL1_BUY_MONTH2 + OIL1_STORE_MONTH1 - OIL1_STORE_MONTH2
 - OIL1_USE_MONTH2 = 0
BALANCE_OIL1_MONTH3: OIL1_BUY_MONTH3 + OIL1_STORE_MONTH2 - OIL1_STORE_MONTH3
 - OIL1_USE_MONTH3 = 0
BALANCE_OIL1_MONTH4: OIL1_BUY_MONTH4 + OIL1_STORE_MONTH3 - OIL1_STORE_MONTH4
 - OIL1_USE_MONTH4 = 0
BALANCE_OIL1_MONTH5: OIL1_BUY_MONTH5 + OIL1_STORE_MONTH4 - OIL1_STORE_MONTH5
 - OIL1_USE_MONTH5 = 0
BALANCE_OIL1_MONTH6: OIL1_BUY_MONTH6 + OIL1_STORE_MONTH5 - OIL1_USE_MONTH6
 = 500
BALANCE_OIL2_MONTH1: OIL2_BUY_MONTH1 - OIL2_STORE_MONTH1 - OIL2_USE_MONTH1
 = -500
BALANCE_OIL2_MONTH2: OIL2_BUY_MONTH2 + OIL2_STORE_MONTH1 - OIL2_STORE_MONTH2
 - OIL2_USE_MONTH2 = 0
BALANCE_OIL2_MONTH3: OIL2_BUY_MONTH3 + OIL2_STORE_MONTH2 - OIL2_STORE_MONTH3
 - OIL2_USE_MONTH3 = 0
BALANCE_OIL2_MONTH4: OIL2_BUY_MONTH4 + OIL2_STORE_MONTH3 - OIL2_STORE_MONTH4
 - OIL2_USE_MONTH4 = 0
BALANCE_OIL2_MONTH5: OIL2_BUY_MONTH5 + OIL2_STORE_MONTH4 - OIL2_STORE_MONTH5
 - OIL2_USE_MONTH5 = 0
BALANCE_OIL2_MONTH6: OIL2_BUY_MONTH6 + OIL2_STORE_MONTH5 - OIL2_USE_MONTH6
 = 500
BALANCE_OIL3_MONTH1: OIL3_BUY_MONTH1 - OIL3_STORE_MONTH1 - OIL3_USE_MONTH1
 = -500
BALANCE_OIL3_MONTH2: OIL3_BUY_MONTH2 + OIL3_STORE_MONTH1 - OIL3_STORE_MONTH2
 - OIL3_USE_MONTH2 = 0
BALANCE_OIL3_MONTH3: OIL3_BUY_MONTH3 + OIL3_STORE_MONTH2 - OIL3_STORE_MONTH3
 - OIL3_USE_MONTH3 = 0
BALANCE_OIL3_MONTH4: OIL3_BUY_MONTH4 + OIL3_STORE_MONTH3 - OIL3_STORE_MONTH4
 - OIL3_USE_MONTH4 = 0
BALANCE_OIL3_MONTH5: OIL3_BUY_MONTH5 + OIL3_STORE_MONTH4 - OIL3_STORE_MONTH5
 - OIL3_USE_MONTH5 = 0
BALANCE_OIL3_MONTH6: OIL3_BUY_MONTH6 + OIL3_STORE_MONTH5 - OIL3_USE_MONTH6
 = 500
BALANCE_VEG1_MONTH1: VEG1_BUY_MONTH1 - VEG1_STORE_MONTH1 - VEG1_USE_MONTH1
 = -500
BALANCE_VEG1_MONTH2: VEG1_BUY_MONTH2 + VEG1_STORE_MONTH1 - VEG1_STORE_MONTH2
 - VEG1_USE_MONTH2 = 0
BALANCE_VEG1_MONTH3: VEG1_BUY_MONTH3 + VEG1_STORE_MONTH2 - VEG1_STORE_MONTH3
 - VEG1_USE_MONTH3 = 0
BALANCE_VEG1_MONTH4: VEG1_BUY_MONTH4 + VEG1_STORE_MONTH3 - VEG1_STORE_MONTH4
 - VEG1_USE_MONTH4 = 0
BALANCE_VEG1_MONTH5: VEG1_BUY_MONTH5 + VEG1_STORE_MONTH4 - VEG1_STORE_MONTH5
 - VEG1_USE_MONTH5 = 0
BALANCE_VEG1_MONTH6: VEG1_BUY_MONTH6 + VEG1_STORE_MONTH5 - VEG1_USE_MONTH6
 = 500
BALANCE_VEG2_MONTH1: VEG2_BUY_MONTH1 - VEG2_STORE_MONTH1 - VEG2_USE_MONTH1
 = -500
BALANCE_VEG2_MONTH2: VEG2_BUY_MONTH2 + VEG2_STORE_MONTH1 - VEG2_STORE_MONTH2
 - VEG2_USE_MONTH2 = 0
BALANCE_VEG2_MONTH3: VEG2_BUY_MONTH3 + VEG2_STORE_MONTH2 - VEG2_STORE_MONTH3
 - VEG2_USE_MONTH3 = 0
BALANCE_VEG2_MONTH4: VEG2_BUY_MONTH4 + VEG2_STORE_MONTH3 - VEG2_STORE_MONTH4
 - VEG2_USE_MONTH4 = 0
BALANCE_VEG2_MONTH5: VEG2_BUY_MONTH5 + VEG2_STORE_MONTH4 - VEG2_STORE_MONTH5
 - VEG2_USE_MONTH5 = 0
BALANCE_VEG2_MONTH6: VEG2_BUY_MONTH6 + VEG2_STORE_MONTH5 - VEG2_USE_MONTH6
 = 500
HARNESS_LOWER_BOUND_MONTH1: 2 OIL1_USE_MONTH1 + 4.19999980927 OIL2_USE_MONTH1
 + 5 OIL3_USE_MONTH1 - 3 TOTAL_USE_MONTH1 + 8.80000019073 VEG1_USE_MONTH1
 + 6.09999990463 VEG2_USE_MONTH1 >= 0
HARNESS_LOWER_BOUND_MONTH2: 2 OIL1_USE_MONTH2 + 4.19999980927 OIL2_USE_MONTH2
 + 5 OIL3_USE_MONTH2 - 3 TOTAL_USE_MONTH2 + 8.80000019073 VEG1_USE_MONTH2
 + 6.09999990463 VEG2_USE_MONTH2 >= 0
HARNESS_LOWER_BOUND_MONTH3: 2 OIL1_USE_MONTH3 + 4.19999980927 OIL2_USE_MONTH3
 + 5 OIL3_USE_MONTH3 - 3 TOTAL_USE_MONTH3 + 8.80000019073 VEG1_USE_MONTH3
 + 6.09999990463 VEG2_USE_MONTH3 >= 0
HARNESS_LOWER_BOUND_MONTH4: 2 OIL1_USE_MONTH4 + 4.19999980927 OIL2_USE_MONTH4
 + 5 OIL3_USE_MONTH4 - 3 TOTAL_USE_MONTH4 + 8.80000019073 VEG1_USE_MONTH4
 + 6.09999990463 VEG2_USE_MONTH4 >= 0
HARNESS_LOWER_BOUND_MONTH5: 2 OIL1_USE_MONTH5 + 4.19999980927 OIL2_USE_MONTH5
 + 5 OIL3_USE_MONTH5 - 3 TOTAL_USE_MONTH5 + 8.80000019073 VEG1_USE_MONTH5
 + 6.09999990463 VEG2_USE_MONTH5 >= 0
HARNESS_LOWER_BOUND_MONTH6: 2 OIL1_USE_MONTH6 + 4.19999980927 OIL2_USE_MONTH6
 + 5 OIL3_USE_MONTH6 - 3 TOTAL_USE_MONTH6 + 8.80000019073 VEG1_USE_MONTH6
 + 6.09999990463 VEG2_USE_MONTH6 >= 0
HARNESS_UPPER_BOUND_MONTH1: 2 OIL1_USE_MONTH1 + 4.19999980927 OIL2_USE_MONTH1
 + 5 OIL3_USE_MONTH1 - 6 TOTAL_USE_MONTH1 + 8.80000019073 VEG1_USE_MONTH1
 + 6.09999990463 VEG2_USE_MONTH1 <= 0
HARNESS_UPPER_BOUND_MONTH2: 2 OIL1_USE_MONTH2 + 4.19999980927 OIL2_USE_MONTH2
 + 5 OIL3_USE_MONTH2 - 6 TOTAL_USE_MONTH2 + 8.80000019073 VEG1_USE_MONTH2
 + 6.09999990463 VEG2_USE_MONTH2 <= 0
HARNESS_UPPER_BOUND_MONTH3: 2 OIL1_USE_MONTH3 + 4.19999980927 OIL2_USE_MONTH3
 + 5 OIL3_USE_MONTH3 - 6 TOTAL_USE_MONTH3 + 8.80000019073 VEG1_USE_MONTH3
 + 6.09999990463 VEG2_USE_MONTH3 <= 0
HARNESS_UPPER_BOUND_MONTH4: 2 OIL1_USE_MONTH4 + 4.19999980927 OIL2_USE_MONTH4
 + 5 OIL3_USE_MONTH4 - 6 TOTAL_USE_MONTH4 + 8.80000019073 VEG1_USE_MONTH4
 + 6.09999990463 VEG2_USE_MONTH4 <= 0
HARNESS_UPPER_BOUND_MONTH5: 2 OIL1_USE_MONTH5 + 4.19999980927 OIL2_USE_MONTH5
 + 5 OIL3_USE_MONTH5 - 6 TOTAL_USE_MONTH5 + 8.80000019073 VEG1_USE_MONTH5
 + 6.09999990463 VEG2_USE_MONTH5 <= 0
HARNESS_UPPER_BOUND_MONTH6: 2 OIL1_USE_MONTH6 + 4.19999980927 OIL2_USE_MONTH6
 + 5 OIL3_USE_MONTH6 - 6 TOTAL_USE_MONTH6 + 8.80000019073 VEG1_USE_MONTH6
 + 6.09999990463 VEG2_USE_MONTH6 <= 0
REFINEMENT_LIMIT_NON_VEGETABLE_MONTH1: OIL1_USE_MONTH1 + OIL2_USE_MONTH1
 + OIL3_USE_MONTH1 <= 250
REFINEMENT_LIMIT_NON_VEGETABLE_MONTH2: OIL1_USE_MONTH2 + OIL2_USE_MONTH2
 + OIL3_USE_MONTH2 <= 250
REFINEMENT_LIMIT_NON_VEGETABLE_MONTH3: OIL1_USE_MONTH3 + OIL2_USE_MONTH3
 + OIL3_USE_MONTH3 <= 250
REFINEMENT_LIMIT_NON_VEGETABLE_MONTH4: OIL1_USE_MONTH4 + OIL2_USE_MONTH4
 + OIL3_USE_MONTH4 <= 250
REFINEMENT_LIMIT_NON_VEGETABLE_MONTH5: OIL1_USE_MONTH5 + OIL2_USE_MONTH5
 + OIL3_USE_MONTH5 <= 250
REFINEMENT_LIMIT_NON_VEGETABLE_MONTH6: OIL1_USE_MONTH6 + OIL2_USE_MONTH6
 + OIL3_USE_MONTH6 <= 250
REFINEMENT_LIMIT_VEGETABLE_MONTH1: VEG1_USE_MONTH1 + VEG2_USE_MONTH1 <= 200
REFINEMENT_LIMIT_VEGETABLE_MONTH2: VEG1_USE_MONTH2 + VEG2_USE_MONTH2 <= 200
REFINEMENT_LIMIT_VEGETABLE_MONTH3: VEG1_USE_MONTH3 + VEG2_USE_MONTH3 <= 200
REFINEMENT_LIMIT_VEGETABLE_MONTH4: VEG1_USE_MONTH4 + VEG2_USE_MONTH4 <= 200
REFINEMENT_LIMIT_VEGETABLE_MONTH5: VEG1_USE_MONTH5 + VEG2_USE_MONTH5 <= 200
REFINEMENT_LIMIT_VEGETABLE_MONTH6: VEG1_USE_MONTH6 + VEG2_USE_MONTH6 <= 200
TOTAL_USE_MONTH1: OIL1_USE_MONTH1 + OIL2_USE_MONTH1 + OIL3_USE_MONTH1
 - TOTAL_USE_MONTH1 + VEG1_USE_MONTH1 + VEG2_USE_MONTH1 = 0
TOTAL_USE_MONTH2: OIL1_USE_MONTH2 + OIL2_USE_MONTH2 + OIL3_USE_MONTH2
 - TOTAL_USE_MONTH2 + VEG1_USE_MONTH2 + VEG2_USE_MONTH2 = 0
TOTAL_USE_MONTH3: OIL1_USE_MONTH3 + OIL2_USE_MONTH3 + OIL3_USE_MONTH3
 - TOTAL_USE_MONTH3 + VEG1_USE_MONTH3 + VEG2_USE_MONTH3 = 0
TOTAL_USE_MONTH4: OIL1_USE_MONTH4 + OIL2_USE_MONTH4 + OIL3_USE_MONTH4
 - TOTAL_USE_MONTH4 + VEG1_USE_MONTH4 + VEG2_USE_MONTH4 = 0
TOTAL_USE_MONTH5: OIL1_USE_MONTH5 + OIL2_USE_MONTH5 + OIL3_USE_MONTH5
 - TOTAL_USE_MONTH5 + VEG1_USE_MONTH5 + VEG2_USE_MONTH5 = 0
TOTAL_USE_MONTH6: OIL1_USE_MONTH6 + OIL2_USE_MONTH6 + OIL3_USE_MONTH6
 - TOTAL_USE_MONTH6 + VEG1_USE_MONTH6 + VEG2_USE_MONTH6 = 0
End
